97
Properties=species:S:1:pos:R:3 pbc="F F F"
Y        0.00000000       0.00000000       0.00000000
C        4.87903679       4.87903679       1.75000000
C        2.64051568       6.37476877       1.65000000
C        0.00000000       6.90000000       1.55000000
C       -2.64051568       6.37476877       1.65000000
C       -4.87903679       4.87903679       1.75000000
C       -6.37476877       2.64051568       1.65000000
C       -6.90000000       0.00000000       1.55000000
C       -6.37476877      -2.64051568       1.65000000
C       -4.87903679      -4.87903679       1.75000000
C       -2.64051568      -6.37476877       1.65000000
C       -0.00000000      -6.90000000       1.55000000
C        2.64051568      -6.37476877       1.65000000
C        4.87903679      -4.87903679       1.75000000
C        6.37476877      -2.64051568       1.65000000
C        6.90000000      -0.00000000       1.55000000
C        6.37476877       2.64051568       1.65000000
C        3.16675033       4.73937679       1.72071068
C        1.11201484       5.59047610       1.57928932
C       -1.11201484       5.59047610       1.57928932
C       -3.16675033       4.73937679       1.72071068
C       -4.73937679       3.16675033       1.72071068
C       -5.59047610       1.11201484       1.57928932
C       -5.59047610      -1.11201484       1.57928932
C       -4.73937679      -3.16675033       1.72071068
C       -3.16675033      -4.73937679       1.72071068
C       -1.11201484      -5.59047610       1.57928932
C        1.11201484      -5.59047610       1.57928932
C        3.16675033      -4.73937679       1.72071068
C        4.73937679      -3.16675033       1.72071068
C        5.59047610      -1.11201484       1.57928932
C        5.59047610       1.11201484       1.57928932
C        4.73937679       3.16675033       1.72071068
N        1.79861213       4.34223380       1.65000000
N       -1.79861213       4.34223380       1.65000000
N       -4.34223380       1.79861213       1.65000000
N       -4.34223380      -1.79861213       1.65000000
N       -1.79861213      -4.34223380       1.65000000
N        1.79861213      -4.34223380       1.65000000
N        4.34223380      -1.79861213       1.65000000
N        4.34223380       1.79861213       1.65000000
H        5.58614357       5.58614357       1.75000000
H        0.00000000       7.90000000       1.55000000
H       -5.58614357       5.58614357       1.75000000
H       -7.90000000       0.00000000       1.55000000
H       -5.58614357      -5.58614357       1.75000000
H       -0.00000000      -7.90000000       1.55000000
H        5.58614357      -5.58614357       1.75000000
H        7.90000000      -0.00000000       1.55000000
C        6.90000000       0.00000000      -1.75000000
C        6.37476877       2.64051568      -1.65000000
C        4.87903679       4.87903679      -1.55000000
C        2.64051568       6.37476877      -1.65000000
C        0.00000000       6.90000000      -1.75000000
C       -2.64051568       6.37476877      -1.65000000
C       -4.87903679       4.87903679      -1.55000000
C       -6.37476877       2.64051568      -1.65000000
C       -6.90000000       0.00000000      -1.75000000
C       -6.37476877      -2.64051568      -1.65000000
C       -4.87903679      -4.87903679      -1.55000000
C       -2.64051568      -6.37476877      -1.65000000
C       -0.00000000      -6.90000000      -1.75000000
C        2.64051568      -6.37476877      -1.65000000
C        4.87903679      -4.87903679      -1.55000000
C        6.37476877      -2.64051568      -1.65000000
C        5.59047610       1.11201484      -1.72071068
C        4.73937679       3.16675033      -1.57928932
C        3.16675033       4.73937679      -1.57928932
C        1.11201484       5.59047610      -1.72071068
C       -1.11201484       5.59047610      -1.72071068
C       -3.16675033       4.73937679      -1.57928932
C       -4.73937679       3.16675033      -1.57928932
C       -5.59047610       1.11201484      -1.72071068
C       -5.59047610      -1.11201484      -1.72071068
C       -4.73937679      -3.16675033      -1.57928932
C       -3.16675033      -4.73937679      -1.57928932
C       -1.11201484      -5.59047610      -1.72071068
C        1.11201484      -5.59047610      -1.72071068
C        3.16675033      -4.73937679      -1.57928932
C        4.73937679      -3.16675033      -1.57928932
C        5.59047610      -1.11201484      -1.72071068
N        4.34223380       1.79861213      -1.65000000
N        1.79861213       4.34223380      -1.65000000
N       -1.79861213       4.34223380      -1.65000000
N       -4.34223380       1.79861213      -1.65000000
N       -4.34223380      -1.79861213      -1.65000000
N       -1.79861213      -4.34223380      -1.65000000
N        1.79861213      -4.34223380      -1.65000000
N        4.34223380      -1.79861213      -1.65000000
H        7.90000000       0.00000000      -1.75000000
H        5.58614357       5.58614357      -1.55000000
H        0.00000000       7.90000000      -1.75000000
H       -5.58614357       5.58614357      -1.55000000
H       -7.90000000       0.00000000      -1.75000000
H       -5.58614357      -5.58614357      -1.55000000
H       -0.00000000      -7.90000000      -1.75000000
H        5.58614357      -5.58614357      -1.55000000
