113

Yb 0.000000 8.747400 4.080999
N 0.044300 6.766400 5.422899
N 2.435200 6.414300 5.718000
N -1.502500 10.030800 2.720700
N -0.271200 12.113900 2.445201
N -1.981100 8.703100 5.422899
N -2.333100 6.312300 5.718000
N 1.283400 10.249900 2.720700
N 3.366400 9.018600 2.445201
N -0.044300 10.728500 5.422899
N -2.435200 11.080600 5.718000
N 1.502500 7.464100 2.720700
N 0.271200 5.381000 2.445201
N 1.981100 8.791800 5.422899
N 2.333100 11.182600 5.718000
N -1.283400 7.245000 2.720700
N -3.366400 8.476300 2.445201
C 1.227200 6.028400 5.649501
C -1.392600 11.386200 2.527101
C 0.848100 4.669500 5.986299
C 1.601800 3.546800 6.336900
C -2.699600 11.947700 2.243901
C -3.122100 13.257100 1.985700
C -0.547200 4.594500 5.972700
C -4.954900 11.103400 1.980801
C -4.464800 13.477700 1.745700
C -5.352300 12.419300 1.738599
C -1.216200 3.425400 6.295899
C -0.961200 5.972800 5.662701
C -0.438500 2.331400 6.645099
C -3.601700 10.907300 2.229000
C 0.937300 11.572600 2.502201
C 0.869900 2.377200 6.638001
C -2.719000 7.520300 5.649501
C 2.638800 10.140000 2.527101
C -4.078000 7.899300 5.986299
C -5.200600 7.145600 6.336900
C 3.200300 11.447000 2.243901
C 4.509700 11.869600 1.985700
C -4.153000 9.294600 5.972700
C 2.356000 13.702300 1.980801
C 4.730300 13.212200 1.745700
C 3.671900 14.099800 1.738599
C -5.322100 9.963600 6.295899
C -2.774700 9.708600 5.662701
C -6.416100 9.186000 6.645099
C 2.159800 12.349100 2.229000
C 2.825100 7.810200 2.502201
C -6.370300 7.877600 6.638001
C -1.227200 11.466500 5.649501
C 1.392600 6.108700 2.527101
C -0.848100 12.825400 5.986299
C -1.601800 13.948100 6.336900
C 2.699600 5.547200 2.243901
C 3.122100 4.237800 1.985700
C 0.547200 12.900400 5.972700
C 4.954900 6.391500 1.980801
C 4.464800 4.017200 1.745700
C 5.352300 5.075600 1.738599
C 1.216200 14.069500 6.295899
C 0.961200 11.522100 5.662701
C 0.438500 15.163500 6.645099
C 3.601700 6.587600 2.229000
C -0.937300 5.922300 2.502201
C -0.869900 15.117700 6.638001
C 2.719000 9.974600 5.649501
C -2.638800 7.354900 2.527101
C 4.078000 9.595600 5.986299
C 5.200600 10.349300 6.336900
C -3.200300 6.047900 2.243901
C -4.509700 5.625300 1.985700
C 4.153000 8.200300 5.972700
C -2.356000 3.792600 1.980801
C -4.730300 4.282700 1.745700
C -3.671900 3.395100 1.738599
C 5.322100 7.531300 6.295899
C 2.774700 7.786300 5.662701
C 6.416100 8.308900 6.645099
C -2.159800 5.145800 2.229000
C -2.825100 9.684700 2.502201
C 6.370300 9.617300 6.638001
H 2.531000 3.568400 6.369999
H -2.514300 13.960900 1.976001
H -5.561100 10.398200 1.976301
H -4.771900 14.341400 1.588500
H -6.249900 12.590300 1.565700
H -2.144700 3.376300 6.279399
H -0.859900 1.540000 6.892299
H 1.340500 1.601200 6.841299
H -5.179100 6.216500 6.369999
H 5.213500 11.261800 1.976001
H 1.650700 14.308500 1.976301
H 5.593900 13.519300 1.588500
H 3.842800 14.997400 1.565700
H -5.371200 10.892200 6.279399
H -7.207400 9.607400 6.892299
H -7.146200 7.406900 6.841299
H -2.531000 13.926500 6.369999
H 2.514300 3.534000 1.976001
H 5.561100 7.096700 1.976301
H 4.771900 3.153500 1.588500
H 6.249900 4.904600 1.565700
H 2.144700 14.118600 6.279399
H 0.859900 15.954900 6.892299
H -1.340500 15.893700 6.841299
H 5.179100 11.278400 6.369999
H -5.213500 6.233100 1.976001
H -1.650700 3.186400 1.976301
H -5.593900 3.975600 1.588500
H -3.842800 2.497500 1.565700
H 5.371200 6.602700 6.279399
H 7.207400 7.887500 6.892299
H 7.146200 10.088000 6.841299
