33
Toy FePc geometry (planar, Angstrom units)
Fe 0.0000 0.0000 0.0000
N 1.9000 0.0000 0.0000
N 0.0000 1.9000 0.0000
N -1.9000 0.0000 0.0000
N -0.0000 -1.9000 0.0000
C 2.7000 0.0000 0.0000
C 1.9092 1.9092 0.0000
C 0.0000 2.7000 0.0000
C -1.9092 1.9092 0.0000
C -2.7000 0.0000 0.0000
C -1.9092 -1.9092 0.0000
C -0.0000 -2.7000 0.0000
C 1.9092 -1.9092 0.0000
C 3.6955 1.5307 0.0000
C 2.8284 2.8284 0.0000
C 1.5307 3.6955 0.0000
C 0.0000 4.0000 0.0000
C -1.5307 3.6955 0.0000
C -2.8284 2.8284 0.0000
C -3.6955 1.5307 0.0000
C -4.0000 0.0000 0.0000
C -3.6955 -1.5307 0.0000
C -2.8284 -2.8284 0.0000
C -1.5307 -3.6955 0.0000
C -0.0000 -4.0000 0.0000
C 1.5307 -3.6955 0.0000
C 2.8284 -2.8284 0.0000
C 3.6955 -1.5307 0.0000
C 4.0000 -0.0000 0.0000
C 5.0000 0.0000 0.0000
C 0.0000 5.0000 0.0000
C -5.0000 0.0000 0.0000
C -0.0000 -5.0000 0.0000
